HUN,8,6,406
1,3,2,30,0,25,3,1,4,17,5,22
3,14,2,7,5,8,4,28,0,2,1,17
0,13,3,30,5,21,4,11,2,9,1,15
5,9,1,3,2,5,3,7,4,23,0,30
5,19,2,30,0,24,1,24,3,27,4,5
1,2,0,22,3,13,5,20,2,24,4,18
0,10,3,7,2,23,5,14,1,27,4,2
0,17,3,13,2,9,4,17,1,22,5,10
